set FullGrade := ComputerVision MachineLearning DataMining Optimization ;
set MyGrade := FinalExam MidtermExam Project Report;
param n_percent :
FinalExam MidtermExam Project Report :=
ComputerVision 30 40 20 10
MachineLearning 20 65 15 0
DataMining 40 35 5 20
Optimization 25 40 30 5 ;

param work :=
ComputerVision 70 MachineLearning 40 DataMining 60 Optimization 80 ;
param u_FullGrade :=
ComputerVision 25 MachineLearning 20 DataMining 100 Optimization 100 ;
param l_FullGrade :=
ComputerVision 10 MachineLearning 0 DataMining 30 Optimization 0 ;
param u_MyGrade :=
FinalExam 100 MidtermExam 50
Project 100 Report 13 ;
param l_MyGrade :=
FinalExam 0 MidtermExam 0
Project 18 Report 8 ;